Please solve the following SAT Problem encoded in DIMACS format, only return a single solution assignment without explanations, if there is any: 
p cnf 10 45
4 -3 2 0
-8 6 -4 0
2 -9 4 0
-9 7 5 0
6 3 -1 0
9 5 -1 0
-9 2 3 0
4 2 3 0
2 5 3 0
4 7 5 0
-1 6 10 0
-7 6 -5 0
5 4 -10 0
-9 5 2 0
6 5 3 0
7 -9 -4 0
2 5 6 0
-1 -9 7 0
1 3 -4 0
-8 -5 6 0
-5 -4 3 0
-3 7 4 0
-9 3 -8 0
-8 9 -7 0
-8 3 2 0
3 -8 6 0
1 2 7 0
-1 5 -4 0
3 5 9 0
-10 -4 -9 0
6 -3 -1 0
-1 2 7 0
2 3 -8 0
-1 -7 -8 0
2 6 -8 0
-9 10 8 0
6 8 3 0
5 4 2 0
-9 -8 5 0
6 8 -3 0
-8 -9 -1 0
-8 5 -1 0
-7 3 -5 0
5 7 -9 0
-10 -4 5 0

